c nIsolatedPIs 13
c maxPI 7
p cnf 28 64
c gate 8 2 6 0
2 -8 0
6 -8 0
-2 -6 8 0
c gate 9 3 5 0
3 -9 0
5 -9 0
-3 -5 9 0
c gate 10 8 9 0
8 -10 0
9 -10 0
-8 -9 10 0
c gate 11 1 7 0
1 -11 0
7 -11 0
-1 -7 11 0
c gate 12 -8 -9 0
-8 -12 0
-9 -12 0
8 9 12 0
c gate 13 -10 -12 0
-10 -13 0
-12 -13 0
10 12 13 0
c gate 14 11 13 0
11 -14 0
13 -14 0
-11 -13 14 0
c gate 15 -10 -14 0
-10 -15 0
-14 -15 0
10 14 15 0
c gate 16 2 7 0
2 -16 0
7 -16 0
-2 -7 16 0
c gate 17 3 6 0
3 -17 0
6 -17 0
-3 -6 17 0
c gate 18 4 5 0
4 -18 0
5 -18 0
-4 -5 18 0
c gate 19 17 -18 0
17 -19 0
-18 -19 0
-17 18 19 0
c gate 20 -17 18 0
-17 -20 0
18 -20 0
17 -18 20 0
c gate 21 -19 -20 0
-19 -21 0
-20 -21 0
19 20 21 0
c gate 22 16 21 0
16 -22 0
21 -22 0
-16 -21 22 0
c gate 23 -16 -21 0
-16 -23 0
-21 -23 0
16 21 23 0
c gate 24 -22 -23 0
-22 -24 0
-23 -24 0
22 23 24 0
c gate 25 -15 -24 0
-15 -25 0
-24 -25 0
15 24 25 0
c gate 26 2 5 0
2 -26 0
5 -26 0
-2 -5 26 0
c gate 27 4 -26 0
4 -27 0
-26 -27 0
-4 26 27 0
c gate 28 25 27 0
25 -28 0
27 -28 0
-25 -27 28 0
c PO
28 0
